\ENCODING=ISO-8859-1
\Problem name: IloCplex

Minimize
 obj1: - X(1) - X(2) - X(3) - X(4) - X(5) - X(6) - X(7) - X(8) - X(9) - X(10)
       - X(11) - 0.75 X(12) - 0.75 X(13) - 0.75 X(14) - 0.75 X(15) - 0.75 X(16)
       - 0.75 X(17) - 0.75 X(18) - 0.75 X(19) - 0.5 X(20) - 0.5 X(21)
       - 0.5 X(22) - 0.5 X(23) - 0.5 X(24) - 0.5 X(25) - 0.5 X(26) - 0.5 X(27)
       - 0.5 X(28) - 0.25 X(29) - 0.25 X(30) - 0.25 X(31) - 0.25 X(32)
       - 0.25 X(33) - 0.25 X(34) - 0.25 X(35) - 0.25 X(36) - 0.25 X(37)
       - 0.25 X(38) - 0.25 X(39) - 0.25 X(40) - 0.25 X(41) + 1
Subject To
 c1:  99 X(1) + 99 X(2) + 96 X(3) + 96 X(4) + 92 X(5) + 92 X(6) + 91 X(7)
      + 88 X(8) + 87 X(9) + 86 X(10) + 85 X(11) + 76 X(12) + 74 X(13)
      + 72 X(14) + 69 X(15) + 67 X(16) + 67 X(17) + 62 X(18) + 61 X(19)
      + 56 X(20) + 52 X(21) + 51 X(22) + 49 X(23) + 46 X(24) + 44 X(25)
      + 42 X(26) + 40 X(27) + 40 X(28) + 33 X(29) + 33 X(30) + 30 X(31)
      + 30 X(32) + 29 X(33) + 28 X(34) + 28 X(35) + 27 X(36) + 25 X(37)
      + 24 X(38) + 23 X(39) + 22 X(40) + 21 X(41) + 20 X(42) + 17 X(43)
      + 14 X(44) + 13 X(45) + 11 X(46) + 10 X(47) + 7 X(48) + 7 X(49) + 3 X(50)
      <= 100
 c2:  X(7) - X(48)  = 0
 c3:  X(18) + X(33) <= 1
 c4:  X(18) + X(35) <= 1
 c5:  X(26) + X(31) <= 1
 c6:  X(33) + X(40) <= 1
 c7:  X(14) + X(34) <= 1
 c8:  X(26) + X(30) <= 1
 c9:  X(8) + X(47) <= 1
 c10: X(13) + X(37) <= 1
Bounds
 0 <= X(1) <= 1
 0 <= X(2) <= 1
 0 <= X(3) <= 1
 0 <= X(4) <= 1
 0 <= X(5) <= 1
 0 <= X(6) <= 1
 0 <= X(7) <= 1
 0 <= X(8) <= 1
 0 <= X(9) <= 1
 0 <= X(10) <= 1
 0 <= X(11) <= 1
 0 <= X(12) <= 1
 0 <= X(13) <= 1
 0 <= X(14) <= 1
 0 <= X(15) <= 1
 0 <= X(16) <= 1
 0 <= X(17) <= 1
 0 <= X(18) <= 1
 0 <= X(19) <= 1
 0 <= X(20) <= 1
 0 <= X(21) <= 1
 0 <= X(22) <= 1
 0 <= X(23) <= 1
 0 <= X(24) <= 1
 0 <= X(25) <= 1
 0 <= X(26) <= 1
 0 <= X(27) <= 1
 0 <= X(28) <= 1
 0 <= X(29) <= 1
 0 <= X(30) <= 1
 0 <= X(31) <= 1
 0 <= X(32) <= 1
 0 <= X(33) <= 1
 0 <= X(34) <= 1
 0 <= X(35) <= 1
 0 <= X(36) <= 1
 0 <= X(37) <= 1
 0 <= X(38) <= 1
 0 <= X(39) <= 1
 0 <= X(40) <= 1
 0 <= X(41) <= 1
 0 <= X(42) <= 1
 0 <= X(43) <= 1
 0 <= X(44) <= 1
 0 <= X(45) <= 1
 0 <= X(46) <= 1
 0 <= X(47) <= 1
 0 <= X(48) <= 1
 0 <= X(49) <= 1
 0 <= X(50) <= 1
Binaries
 X(1)  X(2)  X(3)  X(4)  X(5)  X(6)  X(7)  X(8)  X(9)  X(10)  X(11)  X(12) 
 X(13)  X(14)  X(15)  X(16)  X(17)  X(18)  X(19)  X(20)  X(21)  X(22)  X(23) 
 X(24)  X(25)  X(26)  X(27)  X(28)  X(29)  X(30)  X(31)  X(32)  X(33)  X(34) 
 X(35)  X(36)  X(37)  X(38)  X(39)  X(40)  X(41)  X(42)  X(43)  X(44)  X(45) 
 X(46)  X(47)  X(48)  X(49)  X(50) 
End
